PROBLEM NAME: eil51_n19
KNAPSACK DATA TYPE: uncorrelated
DIMENSION: 19
NUMBER OF ITEMS: 18
CAPACITY OF KNAPSACK: 10259
MIN SPEED: 0.1
MAX SPEED: 1
RENTING RATIO: 9.70
EDGE_WEIGHT_TYPE: CEIL_2D
NODE_COORD_SECTION	(INDEX, X, Y):
1	37	52
2	49	49
3	52	64
4	52	33
5	51	21
6	36	16
7	52	41
8	27	23
9	16	57
10	7	38
11	43	67
12	58	48
13	37	69
14	62	63
15	32	22
16	45	35
17	10	17
18	5	64
19	30	15
ITEMS SECTION	(INDEX, PROFIT, WEIGHT, ASSIGNED NODE NUMBER):
1	891	532	13
2	867	970	11
3	808	906	3
4	727	724	14
5	710	416	12
6	572	300	2
7	518	149	7
8	514	512	16
9	434	925	4
10	431	493	5
11	383	700	6
12	343	581	19
13	281	930	15
14	218	428	8
15	212	811	17
16	138	148	10
17	116	909	18
18	91	851	9
